# Data section
data;

set ParkingSpaces := p1 p2 p3 p4 p5;
set WaitingCars := Car1 Car2 Car3 Car4;

param :
        initLoad :=
    p1     0
    p2     0
    p3     0
    p4     0
    p5     0;

param :
        maxCarCapacity :=
    p1     25
    p2     25
    p3     25
    p4     25
    p5     25;

param :
        parked_car_num :=
    p1     0
    p2     0
    p3     0
    p4     0
    p5     0;

param :
        numPeopleInCar :=
    Car1     2
    Car2     1
    Car3     3
    Car4     5;